249 1000
1 401 18 21 36 43 45 46 48 50 51 56 57 59 64 70 71 77 90 98 99 100 102 105 115 138 153 157 159 163 168 174 177 185 192 193 194 211 220 221 222 224 227 230 235 242 249
2 252
3 347 8 10 18 19 21 27 33 36 43 45 46 48 50 51 53 56 57 59 64 66 70 71 77 90 94 98 99 100 102 105 107 108 113 114 115 120 132 138 152 153 157 159 163 168 174 176 177 183 185 192 193 194 195 202 203 207 211 214 218 219 220 221 222 224 227 230 235 242 243 248 249
4 384 18 21 36 43 45 48 50 51 56 57 59 64 70 71 77 90 98 99 100 102 105 115 138 153 157 159 168 174 177 185 192 194 211 220 221 222 224 227 235 242
5 258 36 45 48 50 51 56 57 59 90 98 100 102 105 138 153 159 174 177 194 211 220 221 222 224 227 235
6 358 8 10 18 19 21 24 27 33 36 43 45 46 48 50 51 53 55 56 57 59 64 66 70 71 72 77 90 94 98 99 100 102 105 107 108 113 114 115 120 121 132 138 152 153 157 159 163 168 174 176 177 183 185 192 193 194 195 202 203 207 211 214 218 219 220 221 222 224 227 230 231 235 242 243 248 249
7 451 18 21 36 43 45 48 50 51 56 57 59 64 77 90 98 99 100 102 105 138 153 159 174 177 185 192 194 211 220 221 222 224 227 235
8 268 10 12 17 18 19 21 22 24 25 27 28 29 30 33 36 37 39 40 41 42 43 45 46 48 49 50 51 53 54 55 56 57 59 61 64 65 66 70 71 72 73 74 76 77 79 82 85 87 88 90 91 94 95 98 99 100 102 103 105 106 107 108 109 110 112 113 114 115 117 120 121 125 126 127 129 132 134 137 138 142 143 152 153 154 156 157 159 163 167 168 171 174 176 177 178 179 182 183 184 185 192 193 194 195 197 199 202 203 204 207 208 209 211 213 214 217 218 219 220 221 222 224 227 230 231 232 235 239 241 242 243 248 249
9 281
10 407 12 17 18 19 21 24 27 28 30 33 36 37 40 42 43 45 46 48 49 50 51 53 54 55 56 57 59 61 64 65 66 70 71 72 73 74 76 77 85 87 88 90 91 94 98 99 100 102 103 105 106 107 108 113 114 115 117 120 121 125 126 127 129 132 137 138 143 152 153 154 156 157 159 163 167 168 174 176 177 178 179 182 183 185 192 193 194 195 197 199 202 203 207 209 211 214 217 218 219 220 221 222 224 227 230 231 235 242 243 248 249
11 292
12 301 18 19 21 24 27 28 30 33 36 40 42 43 45 46 48 49 50 51 53 54 55 56 57 59 64 65 66 70 71 72 73 76 77 87 88 90 91 94 98 99 100 102 103 105 107 108 113 114 115 120 121 132 138 143 152 153 156 157 159 163 167 168 174 176 177 178 179 182 183 185 192 193 194 195 202 203 207 211 214 218 219 220 221 222 224 227 230 231 235 242 243 248 249
13 405 18 21 36 43 45 46 48 50 51 56 57 59 64 70 71 77 90 98 99 100 102 105 115 138 153 157 159 163 168 174 177 185 192 193 194 211 220 221 222 224 227 230 235 242 249
14 271 36 45 48 50 51 56 57 59 90 98 100 102 105 153 177 194 211 221 222 235
15 324 36 45 48 50 51 56 57 59 90 98 100 102 105 138 153 177 194 211 220 221 222 224 227 235
16 389
17 292 18 19 21 27 33 36 43 45 46 48 50 51 53 55 56 57 59 64 66 70 71 72 77 90 94 98 99 100 102 105 107 108 113 114 115 120 121 132 138 152 153 157 159 163 168 174 176 177 183 185 192 193 194 195 202 203 207 211 214 218 219 220 221 222 224 227 230 231 235 242 243 248 249
18 319 19 21 22 23 24 25 26 27 28 29 30 31 33 36 37 38 39 40 41 42 43 45 46 48 49 50 51 52 53 54 55 56 57 59 60 61 62 64 65 66 68 70 71 72 73 74 75 76 77 78 79 82 85 87 88 90 91 94 95 98 99 100 102 103 105 106 107 108 109 110 112 113 114 115 116 117 118 120 121 125 126 127 128 129 132 134 137 138 140 142 143 146 149 150 152 153 154 155 156 157 159 162 163 164 165 166 167 168 170 171 174 176 177 178 179 180 182 183 184 185 187 192 193 194 195 197 199 202 203 204 207 208 209 211 213 214 217 218 219 220 221 222 224 225 227 228 230 231 232 235 239 241 242 243 245 246 247 248 249
19 430 21 24 27 28 30 33 36 37 40 42 43 45 46 48 49 50 51 53 54 55 56 57 59 64 65 66 70 71 72 73 76 77 85 87 88 90 91 94 98 99 100 102 103 105 107 108 113 114 115 120 121 126 132 137 138 143 152 153 154 156 157 159 163 167 168 174 176 177 178 179 182 183 185 192 193 194 195 202 203 207 211 214 217 218 219 220 221 222 224 227 230 231 235 242 243 248 249
20 266
21 304 22 23 24 25 26 27 28 29 30 31 33 36 37 38 39 40 41 42 43 45 46 48 49 50 51 52 53 54 55 56 57 59 60 61 62 64 65 66 68 70 71 72 73 74 75 76 77 78 79 82 85 87 88 90 91 92 94 95 98 99 100 102 103 105 106 107 108 109 110 112 113 114 115 116 117 118 120 121 123 125 126 127 128 129 132 133 134 137 138 140 142 143 146 149 150 152 153 154 155 156 157 159 162 163 164 165 166 167 168 170 171 174 176 177 178 179 180 182 183 184 185 187 192 193 194 195 197 199 202 203 204 207 208 209 211 213 214 217 218 219 220 221 222 224 225 227 228 230 231 232 235 239 241 242 243 245 246 247 248 249
22 468 27 33 36 43 45 46 48 50 51 56 57 59 64 70 71 77 90 94 98 99 100 102 105 107 108 113 114 115 132 138 153 157 159 163 168 174 176 177 183 185 192 193 194 202 207 211 220 221 222 224 227 230 235 242 248 249
23 259 36 43 45 48 50 51 56 57 59 64 70 77 90 98 99 100 102 105 115 138 153 159 168 174 177 185 192 194 211 220 221 222 224 227 235
24 273 27 28 30 33 36 40 42 43 45 46 48 49 50 51 53 54 55 56 57 59 64 65 66 70 71 72 73 76 77 87 88 90 91 94 98 99 100 102 103 105 107 108 113 114 115 120 121 132 138 143 152 153 156 157 159 163 167 168 174 176 177 178 179 182 183 185 192 193 194 195 202 203 207 211 214 218 219 220 221 222 224 227 230 231 235 242 243 248 249
25 460 36 43 45 46 48 50 51 56 57 59 64 70 71 77 90 94 98 99 100 102 105 107 108 114 115 132 138 153 157 159 163 168 174 176 177 183 185 192 193 194 202 207 211 220 221 222 224 227 230 235 242 248 249
26 261 36 43 45 48 50 51 56 57 59 64 70 71 77 90 98 99 100 102 105 115 138 153 157 159 168 174 177 185 192 194 211 220 221 222 224 227 235 242
27 279 28 29 30 33 36 37 39 40 41 42 43 45 46 48 49 50 51 53 54 55 56 57 59 61 64 65 66 70 71 72 73 74 76 77 79 82 85 87 88 90 91 94 95 98 99 100 102 103 105 106 107 108 109 113 114 115 117 120 121 125 126 127 129 132 137 138 142 143 152 153 154 156 157 159 163 167 168 174 176 177 178 179 182 183 185 192 193 194 195 197 199 202 203 207 209 211 213 214 217 218 219 220 221 222 224 227 230 231 232 235 242 243 248 249
28 486 30 33 36 40 42 43 45 46 48 49 50 51 53 55 56 57 59 64 65 66 70 71 72 73 76 77 87 88 90 91 94 98 99 100 102 103 105 107 108 113 114 115 120 121 132 138 143 152 153 156 157 159 163 167 168 174 176 177 178 179 182 183 185 192 193 194 195 202 203 207 211 214 218 219 220 221 222 224 227 230 231 235 242 243 248 249
29 250 33 36 43 45 46 48 50 51 56 57 59 64 70 71 77 90 94 98 99 100 102 105 107 108 113 114 115 132 138 153 157 159 163 168 174 176 177 183 185 192 193 194 202 207 211 220 221 222 224 227 230 235 242 248 249
30 264 33 36 40 42 43 45 46 48 49 50 51 53 55 56 57 59 64 65 66 70 71 72 73 76 77 87 88 90 91 94 98 99 100 102 103 105 107 108 113 114 115 120 121 132 138 143 152 153 156 157 159 163 167 168 174 176 177 178 179 182 183 185 192 193 194 195 202 203 207 211 214 218 219 220 221 222 224 227 230 231 235 242 243 248 249
31 406 36 43 45 48 50 51 56 57 59 64 77 90 98 99 100 102 105 138 153 159 174 177 185 192 194 211 220 221 222 224 227 235
32 254
33 340 36 37 39 40 41 42 43 45 46 48 49 50 51 53 54 55 56 57 59 61 64 65 66 70 71 72 73 74 76 77 79 82 85 87 88 90 91 94 95 98 99 100 102 103 105 106 107 108 109 113 114 115 117 120 121 125 126 127 129 132 137 138 142 143 152 153 154 156 157 159 163 167 168 174 176 177 178 179 182 183 185 192 193 194 195 197 199 202 203 207 209 211 213 214 217 218 219 220 221 222 224 227 230 231 232 235 242 243 248 249
34 380
35 307
36 313 37 38 39 40 41 42 43 45 46 48 49 50 51 52 53 54 55 56 57 58 59 60 61 62 64 65 66 67 68 69 70 71 72 73 74 75 76 77 78 79 82 83 85 87 88 89 90 91 92 94 95 98 99 100 102 103 105 106 107 108 109 110 112 113 114 115 116 117 118 119 120 121 123 125 126 127 128 129 130 132 133 134 135 136 137 138 140 142 143 146 149 150 151 152 153 154 155 156 157 158 159 162 163 164 165 166 167 168 170 171 172 174 175 176 177 178 179 180 182 183 184 185 187 188 192 193 194 195 197 199 201 202 203 204 207 208 209 211 213 214 217 218 219 220 221 222 224 225 226 227 228 230 231 232 235 239 241 242 243 245 246 247 248 249
37 450 43 45 46 48 50 51 53 55 56 57 59 64 66 70 71 72 77 90 94 98 99 100 102 105 107 108 113 114 115 120 121 132 138 152 153 157 159 163 168 174 176 177 183 185 192 193 194 195 202 203 207 211 214 218 219 220 221 222 224 227 230 231 235 242 243 248 249
38 271 43 45 48 50 51 56 57 59 64 70 71 77 90 98 99 100 102 105 115 138 153 157 159 168 174 177 185 192 194 211 220 221 222 224 227 235 242
39 279 43 45 46 48 50 51 56 57 59 64 70 71 77 90 94 98 99 100 102 105 107 108 113 114 115 132 138 152 153 157 159 163 168 174 176 177 183 185 192 193 194 202 207 211 220 221 222 224 227 230 235 242 248 249
40 381 42 43 45 46 48 49 50 51 53 55 56 57 59 64 66 70 71 72 77 87 90 94 98 99 100 102 103 105 107 108 113 114 115 120 121 132 138 152 153 157 159 163 168 174 176 177 183 185 192 193 194 195 202 203 207 211 214 218 219 220 221 222 224 227 230 231 235 242 243 248 249
41 275 43 45 46 48 50 51 56 57 59 64 70 71 77 90 94 98 99 100 102 105 107 108 114 115 132 138 153 157 159 163 168 174 176 177 183 185 192 193 194 202 207 211 220 221 222 224 227 230 235 242 248 249
42 344 43 45 46 48 49 50 51 53 54 55 56 57 59 64 65 66 70 71 72 73 76 77 87 88 90 91 94 98 99 100 102 103 105 107 108 113 114 115 120 121 132 138 143 152 153 156 157 159 163 167 168 174 176 177 178 179 182 183 185 192 193 194 195 202 203 207 211 214 218 219 220 221 222 224 227 230 231 235 242 243 248 249
43 411 45 46 48 49 50 51 52 53 54 55 56 57 59 60 61 62 64 65 66 68 70 71 72 73 74 75 76 77 78 79 82 85 87 88 90 91 92 94 95 98 99 100 102 103 105 106 107 108 109 110 112 113 114 115 116 117 118 120 121 123 125 126 127 128 129 132 133 134 137 138 140 142 143 146 149 150 152 153 154 155 156 157 159 162 163 164 165 166 167 168 170 171 174 176 177 178 179 180 182 183 184 185 187 192 193 194 195 197 199 202 203 204 207 208 209 211 213 214 217 218 219 220 221 222 224 225 227 228 230 231 232 235 239 241 242 243 245 246 247 248 249
44 253
45 336 46 48 49 50 51 52 53 54 55 56 57 58 59 60 61 62 64 65 66 67 68 70 71 72 73 74 75 76 77 78 79 82 83 85 87 88 89 90 91 92 94 95 98 99 100 102 103 105 106 107 108 109 110 112 113 114 115 116 117 118 119 120 121 123 125 126 127 128 129 130 132 133 134 137 138 140 142 143 146 149 150 151 152 153 154 155 156 157 158 159 162 163 164 165 166 167 168 170 171 174 175 176 177 178 179 180 182 183 184 185 187 192 193 194 195 197 199 202 203 204 207 208 209 211 213 214 217 218 219 220 221 222 224 225 226 227 228 230 231 232 235 239 241 242 243 245 246 247 248 249
46 361 48 49 50 51 53 54 55 56 57 59 61 64 65 66 68 70 71 72 73 74 76 77 78 79 82 85 87 88 90 91 94 95 98 99 100 102 103 105 106 107 108 109 110 112 113 114 115 117 120 121 125 126 127 129 132 134 137 138 142 143 150 152 153 154 156 157 159 163 165 166 167 168 170 171 174 176 177 178 179 180 182 183 184 185 187 192 193 194 195 197 199 202 203 204 207 208 209 211 213 214 217 218 219 220 221 222 224 225 227 230 231 232 235 239 241 242 243 246 248 249
47 264
48 375 49 50 51 52 53 54 55 56 57 58 59 60 61 62 64 65 66 67 68 70 71 72 73 74 75 76 77 78 79 82 83 85 87 88 89 90 91 92 94 95 98 99 100 102 103 105 106 107 108 109 110 112 113 114 115 116 117 118 119 120 121 123 125 126 127 128 129 130 132 133 134 137 138 140 142 143 146 149 150 151 152 153 154 155 156 157 158 159 162 163 164 165 166 167 168 170 171 174 175 176 177 178 179 180 182 183 184 185 187 192 193 194 195 197 199 202 203 204 207 208 209 211 213 214 217 218 219 220 221 222 224 225 226 227 228 230 231 232 235 239 241 242 243 245 246 247 248 249
49 430 50 51 53 55 56 57 59 64 65 66 70 71 72 73 76 77 87 88 90 91 94 98 99 100 102 103 105 107 108 113 114 115 120 121 132 138 143 152 153 156 157 159 163 168 174 176 177 178 179 182 183 185 192 193 194 195 202 203 207 211 214 218 219 220 221 222 224 227 230 231 235 242 243 248 249
50 266 51 52 53 54 55 56 57 58 59 60 61 62 64 65 66 67 68 70 71 72 73 74 75 76 77 78 79 82 83 85 87 88 89 90 91 92 94 95 98 99 100 102 103 105 106 107 108 109 110 112 113 114 115 116 117 118 119 120 121 123 125 126 127 128 129 130 132 133 134 137 138 140 142 143 146 149 150 151 152 153 154 155 156 157 158 159 162 163 164 165 166 167 168 170 171 174 175 176 177 178 179 180 182 183 184 185 187 192 193 194 195 197 199 202 203 204 207 208 209 211 213 214 217 218 219 220 221 222 224 225 226 227 228 230 231 232 235 239 241 242 243 245 246 247 248 249
51 304 52 53 54 55 56 57 58 59 60 61 62 64 65 66 67 68 70 71 72 73 74 75 76 77 78 79 82 83 85 87 88 89 90 91 92 94 95 98 99 100 102 103 105 106 107 108 109 110 112 113 114 115 116 117 118 119 120 121 123 125 126 127 128 129 130 132 133 134 137 138 140 142 143 146 149 150 151 152 153 154 155 156 157 158 159 162 163 164 165 166 167 168 170 171 174 175 176 177 178 179 180 182 183 184 185 187 192 193 194 195 197 199 202 203 204 207 208 209 211 213 214 217 218 219 220 221 222 224 225 226 227 228 230 231 232 235 239 241 242 243 245 246 247 248 249
52 392 56 57 59 64 70 77 90 98 99 100 102 105 115 138 153 159 174 177 185 192 194 211 220 221 222 224 227 235
53 261 54 55 56 57 59 61 64 65 66 70 71 72 73 74 76 77 85 87 88 90 91 94 98 99 100 102 103 105 106 107 108 113 114 115 117 120 121 125 126 127 129 132 137 138 143 152 153 154 156 157 159 163 167 168 174 176 177 178 179 182 183 185 192 193 194 195 197 202 203 207 209 211 214 217 218 219 220 221 222 224 227 230 231 235 242 243 248 249
54 347 55 56 57 59 64 66 70 71 72 77 90 94 98 99 100 102 105 107 108 113 114 115 120 121 132 138 152 153 157 159 163 168 174 176 177 183 185 192 193 194 195 202 203 207 211 214 218 219 220 221 222 224 227 230 231 235 242 243 248 249
55 419 56 57 59 64 65 66 70 71 72 73 76 77 87 88 90 91 94 98 99 100 102 103 105 107 108 113 114 115 120 121 126 132 137 138 143 152 153 154 156 157 159 163 167 168 174 176 177 178 179 182 183 185 192 193 194 195 202 203 207 211 214 218 219 220 221 222 224 227 230 231 235 242 243 248 249
56 278 57 58 59 60 61 62 64 65 66 67 68 70 71 72 73 74 75 76 77 78 79 82 83 85 87 88 89 90 91 92 94 95 98 99 100 102 103 105 106 107 108 109 110 112 113 114 115 116 117 118 119 120 121 123 125 126 127 128 129 130 132 133 134 137 138 140 142 143 146 149 150 151 152 153 154 155 156 157 158 159 162 163 164 165 166 167 168 170 171 174 175 176 177 178 179 180 182 183 184 185 187 192 193 194 195 197 199 202 203 204 207 208 209 211 213 214 217 218 219 220 221 222 224 225 226 227 228 230 231 232 235 239 241 242 243 245 246 247 248 249
57 303 58 59 60 61 62 64 65 66 67 68 70 71 72 73 74 75 76 77 78 79 82 83 85 87 88 89 90 91 92 94 95 98 99 100 102 103 105 106 107 108 109 110 112 113 114 115 116 117 118 119 120 121 123 125 126 127 128 129 130 132 133 134 135 136 137 138 140 142 143 146 149 150 151 152 153 154 155 156 157 158 159 162 163 164 165 166 167 168 170 171 174 175 176 177 178 179 180 182 183 184 185 187 192 193 194 195 197 199 201 202 203 204 207 208 209 211 213 214 217 218 219 220 221 222 224 225 226 227 228 230 231 232 235 239 241 242 243 245 246 247 248 249
58 465 59 90 98 100 102 105 153 177 194 211 221 222 235
59 258 60 61 62 64 65 66 67 68 70 71 72 73 74 75 76 77 78 79 82 83 85 87 88 89 90 91 92 94 95 98 99 100 102 103 105 106 107 108 109 110 112 113 114 115 116 117 118 119 120 121 123 125 126 127 128 129 130 132 133 134 135 136 137 138 140 142 143 146 149 150 151 152 153 154 155 156 157 158 159 162 163 164 165 166 167 168 170 171 172 174 175 176 177 178 179 180 182 183 184 185 187 188 192 193 194 195 197 199 201 202 203 204 207 208 209 211 213 214 217 218 219 220 221 222 224 225 226 227 228 230 231 232 235 239 241 242 243 245 246 247 248 249
60 277 64 70 71 77 90 98 99 100 102 105 115 138 153 157 159 168 174 177 185 192 194 211 220 221 222 224 227 235
61 495 64 70 71 77 90 94 98 99 100 102 105 107 108 113 114 115 120 132 138 152 153 157 159 163 168 174 176 177 183 185 192 193 194 202 207 211 219 220 221 222 224 227 230 235 242 248 249
62 250 64 70 71 77 90 98 99 100 102 105 115 138 153 157 159 168 174 177 185 192 194 211 220 221 222 224 227 235 242
63 255
64 418 65 66 68 70 71 72 73 74 75 76 77 78 79 82 85 87 88 90 91 94 95 98 99 100 102 103 105 106 107 108 109 110 112 113 114 115 116 117 118 120 121 125 126 127 128 129 132 134 137 138 140 142 143 146 150 152 153 154 155 156 157 159 162 163 165 166 167 168 170 171 174 176 177 178 179 180 182 183 184 185 187 192 193 194 195 197 199 202 203 204 207 208 209 211 213 214 217 218 219 220 221 222 224 225 227 230 231 232 235 239 241 242 243 245 246 247 248 249
65 277 66 70 71 72 77 87 90 91 94 98 99 100 102 103 105 107 108 113 114 115 120 121 132 138 143 152 153 157 159 163 168 174 176 177 178 179 182 183 185 192 193 194 195 202 203 207 211 214 218 219 220 221 222 224 227 230 231 235 242 243 248 249
66 305 70 71 72 73 76 77 85 87 88 90 91 94 98 99 100 102 103 105 107 108 113 114 115 120 121 126 132 137 138 143 152 153 154 156 157 159 163 167 168 174 176 177 178 179 182 183 185 192 193 194 195 197 202 203 207 211 214 217 218 219 220 221 222 224 227 230 231 235 242 243 248 249
67 377 90 98 100 102 105 153 177 194 211 221 222 235
68 292 70 71 77 90 98 99 100 102 105 115 138 153 157 159 163 168 174 177 185 192 193 194 211 220 221 222 224 227 230 235 242 249
69 331 98 100 211
70 426 71 72 73 74 76 77 78 79 82 85 87 88 90 91 94 95 98 99 100 102 103 105 106 107 108 109 110 112 113 114 115 116 117 118 120 121 125 126 127 128 129 132 134 137 138 142 143 146 150 152 153 154 155 156 157 159 163 165 166 167 168 170 171 174 176 177 178 179 180 182 183 184 185 187 192 193 194 195 197 199 202 203 204 207 208 209 211 213 214 217 218 219 220 221 222 224 225 227 230 231 232 235 239 241 242 243 245 246 247 248 249
71 260 72 73 74 76 77 78 79 82 85 87 88 90 91 94 95 98 99 100 102 103 105 106 107 108 109 110 112 113 114 115 117 118 120 121 125 126 127 128 129 132 134 137 138 142 143 146 150 152 153 154 155 156 157 159 163 165 166 167 168 170 171 174 176 177 178 179 180 182 183 184 185 187 192 193 194 195 197 199 202 203 204 207 208 209 211 213 214 217 218 219 220 221 222 224 225 227 230 231 232 235 239 241 242 243 245 246 247 248 249
72 314 73 76 77 87 88 90 91 94 98 99 100 102 103 105 107 108 113 114 115 120 121 132 137 138 143 152 153 154 156 157 159 163 167 168 174 176 177 178 179 182 183 185 192 193 194 195 202 203 207 211 214 218 219 220 221 222 224 227 230 231 235 242 243 248 249
73 412 77 87 90 91 94 98 99 100 102 103 105 107 108 113 114 115 120 121 132 138 143 152 153 157 159 163 168 174 176 177 183 185 192 193 194 195 202 203 207 211 214 218 219 220 221 222 224 227 230 231 235 242 243 248 249
74 261 77 90 94 98 99 100 102 105 107 108 113 114 115 120 132 138 152 153 157 159 163 168 174 176 177 183 185 192 193 194 202 207 211 219 220 221 222 224 227 230 235 242 248 249
75 327 77 90 98 99 100 102 105 138 153 159 174 177 185 192 194 211 220 221 222 224 227 235
76 494 77 87 90 91 94 98 99 100 102 103 105 107 108 113 114 115 120 121 132 138 143 152 153 157 159 163 168 174 176 177 178 182 183 185 192 193 194 195 202 203 207 211 214 218 219 220 221 222 224 227 230 231 235 242 243 248 249
77 250 78 79 82 85 87 88 90 91 92 94 95 98 99 100 102 103 105 106 107 108 109 110 112 113 114 115 116 117 118 120 121 123 125 126 127 128 129 132 133 134 137 138 140 142 143 146 149 150 152 153 154 155 156 157 159 162 163 164 165 166 167 168 170 171 174 176 177 178 179 180 182 183 184 185 187 192 193 194 195 197 199 202 203 204 207 208 209 211 213 214 217 218 219 220 221 222 224 225 227 228 230 231 232 235 239 241 242 243 245 246 247 248 249
78 256 90 98 99 100 102 105 115 138 153 157 159 163 168 174 177 185 192 193 194 211 220 221 222 224 227 230 235 242 249
79 379 90 94 98 99 100 102 105 107 108 113 114 115 132 138 153 157 159 163 168 174 176 177 183 185 192 193 194 202 207 211 220 221 222 224 227 230 235 242 248 249
80 303
81 318
82 488 90 94 98 99 100 102 105 107 108 113 114 115 132 138 153 157 159 163 168 174 176 177 183 185 192 193 194 202 207 211 220 221 222 224 227 230 235 242 248 249
83 254 90 98 100 102 105 138 153 177 194 211 221 222 227 235
84 258
85 380 90 94 98 99 100 102 105 107 108 113 114 115 120 132 138 152 153 157 159 163 168 174 176 177 183 185 192 193 194 195 202 203 207 211 214 218 219 220 221 222 224 227 230 231 235 242 243 248 249
86 252
87 368 90 91 94 98 99 100 102 103 105 107 108 113 114 115 120 121 132 138 143 152 153 156 157 159 163 168 174 176 177 178 179 182 183 185 192 193 194 195 202 203 207 211 214 218 219 220 221 222 224 227 230 231 235 242 243 248 249
88 468 90 94 98 99 100 102 103 105 107 108 113 114 115 120 121 132 138 152 153 157 159 163 168 174 176 177 183 185 192 193 194 195 202 203 207 211 214 218 219 220 221 222 224 227 230 231 235 242 243 248 249
89 261 90 98 100 102 105 138 153 177 194 211 220 221 222 227 235
90 271 91 92 94 95 98 99 100 102 103 105 106 107 108 109 110 112 113 114 115 116 117 118 119 120 121 123 125 126 127 128 129 130 132 133 134 135 136 137 138 140 142 143 146 149 150 151 152 153 154 155 156 157 158 159 162 163 164 165 166 167 168 170 171 174 175 176 177 178 179 180 182 183 184 185 187 192 193 194 195 197 199 201 202 203 204 207 208 209 211 213 214 217 218 219 220 221 222 224 225 226 227 228 230 231 232 235 239 241 242 243 245 246 247 248 249
91 354 94 98 99 100 102 103 105 107 108 113 114 115 120 121 132 138 143 152 153 157 159 163 168 174 176 177 178 179 182 183 185 192 193 194 195 202 203 207 211 214 218 219 220 221 222 224 227 230 231 235 242 243 248 249
92 287 98 100 102 105 138 153 159 174 177 194 211 220 221 222 224 227 235
93 359
94 499 95 98 99 100 102 103 105 106 107 108 109 112 113 114 115 117 120 121 125 126 127 129 132 137 138 142 143 152 153 154 156 157 159 163 167 168 174 176 177 178 179 182 183 184 185 192 193 194 195 197 199 202 203 207 208 209 211 213 214 217 218 219 220 221 222 224 227 230 231 232 235 241 242 243 248 249
95 250 98 99 100 102 105 107 108 114 115 132 138 153 157 159 163 168 174 176 177 183 185 192 193 194 202 207 211 220 221 222 224 227 230 235 242 248 249
96 251
97 443
98 258 99 100 102 103 105 106 107 108 109 110 112 113 114 115 116 117 118 119 120 121 123 125 126 127 128 129 130 132 133 134 135 136 137 138 140 142 143 144 146 149 150 151 152 153 154 155 156 157 158 159 162 163 164 165 166 167 168 170 171 172 174 175 176 177 178 179 180 182 183 184 185 187 188 192 193 194 195 197 199 201 202 203 204 207 208 209 211 213 214 217 218 219 220 221 222 224 225 226 227 228 230 231 232 235 239 241 242 243 245 246 247 248 249
99 299 100 102 103 105 106 107 108 109 110 112 113 114 115 116 117 118 120 121 125 126 127 128 129 132 133 134 137 138 140 142 143 146 149 150 152 153 154 155 156 157 159 162 163 164 165 166 167 168 170 171 174 176 177 178 179 180 182 183 184 185 187 192 193 194 195 197 199 202 203 204 207 208 209 211 213 214 217 218 219 220 221 222 224 225 227 228 230 231 232 235 239 241 242 243 245 246 247 248 249
100 497 102 103 105 106 107 108 109 110 112 113 114 115 116 117 118 119 120 121 123 125 126 127 128 129 130 132 133 134 135 136 137 138 140 142 143 146 149 150 151 152 153 154 155 156 157 158 159 162 163 164 165 166 167 168 170 171 172 174 175 176 177 178 179 180 182 183 184 185 187 188 192 193 194 195 197 199 201 202 203 204 207 208 209 211 213 214 217 218 219 220 221 222 224 225 226 227 228 230 231 232 235 239 241 242 243 245 246 247 248 249
101 251
102 252 103 105 106 107 108 109 110 112 113 114 115 116 117 118 119 120 121 123 125 126 127 128 129 130 132 133 134 135 136 137 138 140 142 143 146 149 150 151 152 153 154 155 156 157 158 159 162 163 164 165 166 167 168 170 171 172 174 175 176 177 178 179 180 182 183 184 185 187 188 192 193 194 195 197 199 201 202 203 204 207 208 209 211 213 214 217 218 219 220 221 222 224 225 226 227 228 230 231 232 235 239 241 242 243 245 246 247 248 249
103 395 105 107 108 113 114 115 120 121 132 138 143 152 153 156 157 159 163 167 168 174 176 177 178 179 182 183 185 192 193 194 195 202 203 207 211 214 218 219 220 221 222 224 227 230 231 235 242 243 248 249
104 296
105 309 106 107 108 109 110 112 113 114 115 116 117 118 119 120 121 123 125 126 127 128 129 130 132 133 134 135 136 137 138 140 142 143 146 149 150 151 152 153 154 155 156 157 158 159 162 163 164 165 166 167 168 170 171 174 175 176 177 178 179 180 182 183 184 185 187 192 193 194 195 197 199 201 202 203 204 207 208 209 211 213 214 217 218 219 220 221 222 224 225 226 227 228 230 231 232 235 239 241 242 243 245 246 247 248 249
106 456 107 108 113 114 115 120 132 138 152 153 157 159 163 168 174 176 177 183 185 192 193 194 195 202 203 207 211 214 218 219 220 221 222 224 227 230 235 242 243 248 249
107 261 108 109 112 113 114 115 117 120 121 125 126 127 129 132 137 138 142 143 152 153 154 156 157 159 163 167 168 174 176 177 178 179 182 183 185 192 193 194 195 197 199 202 203 207 208 209 211 213 214 217 218 219 220 221 222 224 227 230 231 232 235 241 242 243 248 249
108 283 109 110 112 113 114 115 117 120 121 125 126 127 129 132 137 138 142 143 152 153 154 156 157 159 163 167 168 174 176 177 178 179 182 183 184 185 192 193 194 195 197 199 202 203 207 208 209 211 213 214 217 218 219 220 221 222 224 227 230 231 232 235 241 242 243 248 249
109 371 113 114 115 132 138 153 157 159 163 168 174 176 177 183 185 192 193 194 202 207 211 220 221 222 224 227 230 235 242 248 249
110 274 115 132 138 153 157 159 163 168 174 176 177 185 192 193 194 202 207 211 220 221 222 224 227 230 235 242 249
111 355
112 480 114 115 132 138 153 157 159 163 168 174 176 177 183 185 192 193 194 202 207 211 220 221 222 224 227 230 235 242 248 249
113 254 114 115 117 120 121 125 126 127 129 132 137 138 142 143 152 153 154 156 157 159 163 167 168 174 176 177 178 179 182 183 185 192 193 194 195 197 199 202 203 207 209 211 213 214 217 218 219 220 221 222 224 227 230 231 235 242 243 248 249
114 266 115 117 120 121 125 126 127 129 132 137 138 142 143 152 153 154 156 157 159 163 167 168 174 176 177 178 179 182 183 185 192 193 194 195 197 199 202 203 207 209 211 213 214 217 218 219 220 221 222 224 227 230 231 232 235 242 243 248 249
115 471 116 117 118 120 121 125 126 127 128 129 132 134 137 138 140 142 143 146 150 152 153 154 155 156 157 159 162 163 165 166 167 168 170 171 174 176 177 178 179 180 182 183 184 185 187 192 193 194 195 197 199 202 203 204 207 208 209 211 213 214 217 218 219 220 221 222 224 225 227 230 231 232 235 239 241 242 243 245 246 247 248 249
116 252 138 153 159 168 174 177 185 192 194 211 220 221 222 224 227 235
117 277 120 132 138 152 153 157 159 163 168 174 176 177 183 185 192 193 194 202 207 211 219 220 221 222 224 227 230 235 242 248 249
118 404 138 153 159 168 174 177 185 192 194 211 220 221 222 224 227 235
119 255 153 177 194 211 221 222 235
120 341 121 125 126 127 129 132 137 138 143 152 153 154 156 157 159 163 167 168 174 176 177 178 179 182 183 185 192 193 194 195 197 199 202 203 207 209 211 213 214 217 218 219 220 221 222 224 227 230 231 235 242 243 248 249
121 468 126 132 137 138 143 152 153 154 156 157 159 163 167 168 174 176 177 178 179 182 183 185 192 193 194 195 202 203 207 211 214 218 219 220 221 222 224 227 230 231 235 242 243 248 249
122 262
123 270 138 153 159 174 177 194 211 220 221 222 224 227 235
124 417
125 287 132 138 152 153 157 159 163 168 174 176 177 183 185 192 193 194 195 202 203 207 211 218 219 220 221 222 224 227 230 235 242 243 248 249
126 296 132 138 152 153 157 159 163 168 174 176 177 183 185 192 193 194 195 202 203 207 211 214 218 219 220 221 222 224 227 230 231 235 242 243 248 249
127 425 132 138 152 153 157 159 163 168 174 176 177 183 185 192 193 194 202 207 211 219 220 221 222 224 227 230 235 242 248 249
128 284 138 153 159 168 174 177 185 192 194 211 220 221 222 224 227 235
129 291 132 138 152 153 157 159 163 168 174 176 177 183 185 192 193 194 195 202 203 207 211 219 220 221 222 224 227 230 235 242 248 249
130 461 153 177 194 211 221 222 235
131 255
132 284 134 137 138 142 143 152 153 154 156 157 159 163 167 168 171 174 176 177 178 179 182 183 184 185 192 193 194 195 197 199 202 203 204 207 208 209 211 213 214 217 218 219 220 221 222 224 227 230 231 232 235 239 241 242 243 248 249
133 488 138 153 159 174 177 194 211 220 221 222 224 227 235
134 253 138 153 157 159 163 168 174 177 185 192 193 194 202 211 220 221 222 224 227 230 235 242 249
135 259 153 177 194 211 221 222 235
136 417 153 177 194 211 221 222 235
137 259 138 152 153 157 159 163 168 174 176 177 183 185 192 193 194 195 202 203 207 211 214 218 219 220 221 222 224 227 230 231 235 242 243 248 249
138 324 140 142 143 146 149 150 152 153 154 155 156 157 159 162 163 164 165 166 167 168 170 171 174 176 177 178 179 180 182 183 184 185 187 192 193 194 195 197 199 202 203 204 207 208 209 211 213 214 217 218 219 220 221 222 224 225 227 228 230 231 232 235 239 241 242 243 245 246 247 248 249
139 440
140 264 153 159 174 177 185 192 194 211 220 221 222 224 227 235
141 296
142 436 152 153 157 159 163 168 174 176 177 183 185 192 193 194 202 207 211 220 221 222 224 227 230 235 242 248 249
143 260 152 153 157 159 163 168 174 176 177 178 179 182 183 185 192 193 194 195 202 203 207 211 214 218 219 220 221 222 224 227 230 231 235 242 243 248 249
144 304 211
145 374
146 289 153 157 159 168 174 177 185 192 194 211 220 221 222 224 227 235 242
147 337
148 392
149 278 153 159 174 177 185 194 211 220 221 222 224 227 235
150 330 153 157 159 163 168 174 177 185 192 193 194 211 220 221 222 224 227 230 235 242 249
151 489 153 177 194 211 221 222 235
152 255 153 154 156 157 159 163 167 168 174 176 177 178 179 182 183 185 192 193 194 195 197 199 202 203 207 209 211 213 214 217 218 219 220 221 222 224 227 230 231 235 242 243 248 249
153 256 154 155 156 157 158 159 162 163 164 165 166 167 168 170 171 174 175 176 177 178 179 180 182 183 184 185 187 192 193 194 195 197 199 201 202 203 204 207 208 209 211 213 214 217 218 219 220 221 222 224 225 226 227 228 230 231 232 235 239 241 242 243 245 246 247 248 249
154 383 157 159 163 168 174 176 177 183 185 192 193 194 195 202 203 207 211 214 218 219 220 221 222 224 227 230 231 235 242 243 248 249
155 267 157 159 168 174 177 185 192 194 211 220 221 222 224 227 235 242
156 350 157 159 163 168 174 176 177 183 185 192 193 194 195 202 203 207 211 214 218 219 220 221 222 224 227 230 231 235 242 243 248 249
157 415 159 163 165 166 167 168 170 171 174 176 177 178 179 180 182 183 184 185 187 192 193 194 195 197 199 202 203 204 207 208 209 211 213 214 217 218 219 220 221 222 224 225 227 230 231 232 235 239 241 242 243 245 246 247 248 249
158 285 177 194 211 221 222 235
159 300 162 163 164 165 166 167 168 170 171 174 176 177 178 179 180 182 183 184 185 187 192 193 194 195 197 199 202 203 204 207 208 209 211 213 214 217 218 219 220 221 222 224 225 227 228 230 231 232 235 239 241 242 243 245 246 247 248 249
160 396
161 269
162 335 174 177 185 192 194 211 220 221 222 224 227 235
163 472 165 166 167 168 170 171 174 176 177 178 179 180 182 183 184 185 187 192 193 194 195 197 199 202 203 204 207 208 209 211 213 214 217 218 219 220 221 222 224 225 227 230 231 232 235 239 241 242 243 246 247 248 249
164 262 174 177 185 194 211 220 221 222 224 227 235
165 266 168 174 177 185 192 193 194 211 220 221 222 224 227 230 235 242 249
166 420 168 174 177 185 192 193 194 211 220 221 222 224 227 230 235 242 249
167 259 168 174 176 177 183 185 192 193 194 195 202 203 207 211 214 218 219 220 221 222 224 227 230 231 235 242 243 248 249
168 321 170 171 174 176 177 178 179 180 182 183 184 185 187 192 193 194 195 197 199 202 203 204 207 208 209 211 213 214 217 218 219 220 221 222 224 225 227 230 231 232 235 239 241 242 243 245 246 247 248 249
169 498
170 250 174 177 185 192 193 194 211 220 221 222 224 227 230 235 242 249
171 252 174 176 177 185 192 193 194 202 211 220 221 222 224 227 230 235 242 249
172 444 177 211
173 253
174 303 176 177 178 179 180 182 183 184 185 187 192 193 194 195 197 199 202 203 204 207 208 209 211 213 214 217 218 219 220 221 222 224 225 227 228 230 231 232 235 239 241 242 243 245 246 247 248 249
175 433 177 194 211 221 222 235
176 270 177 178 179 182 183 184 185 192 193 194 195 197 199 202 203 204 207 208 209 211 213 214 217 218 219 220 221 222 224 227 230 231 232 235 241 242 243 248 249
177 297 178 179 180 182 183 184 185 187 188 192 193 194 195 197 199 201 202 203 204 207 208 209 211 213 214 217 218 219 220 221 222 224 225 226 227 228 230 231 232 235 239 241 242 243 245 246 247 248 249
178 447 179 182 183 185 192 193 194 195 202 203 207 211 214 218 219 220 221 222 224 227 230 231 235 242 243 248 249
179 262 182 183 185 192 193 194 195 202 203 207 211 214 218 219 220 221 222 224 227 230 231 235 242 243 248 249
180 291 185 192 193 194 211 220 221 222 224 227 230 235 242 249
181 355
182 254 183 185 192 193 194 195 202 203 207 211 214 218 219 220 221 222 224 227 230 231 235 242 243 248 249
183 391 184 185 192 193 194 195 197 199 202 203 207 208 209 211 213 214 217 218 219 220 221 222 224 227 230 231 232 235 241 242 243 248 249
184 476 185 192 193 194 202 207 211 220 221 222 224 227 230 235 242 249
185 258 187 192 193 194 195 197 199 202 203 204 207 208 209 211 213 214 217 218 219 220 221 222 224 225 227 228 230 231 232 235 239 241 242 243 245 246 247 248 249
186 266
187 462 192 193 194 211 220 221 222 224 227 230 235 242 249
188 262 211
189 276
190 468
191 254
192 278 193 194 195 197 199 202 203 204 207 208 209 211 213 214 217 218 219 220 221 222 224 225 227 230 231 232 235 239 241 242 243 245 246 247 248 249
193 377 194 195 197 199 202 203 204 207 208 209 211 213 214 217 218 219 220 221 222 224 225 227 230 231 232 235 239 241 242 243 246 248 249
194 258 195 197 199 201 202 203 204 207 208 209 211 213 214 217 218 219 220 221 222 224 225 226 227 228 230 231 232 235 239 241 242 243 245 246 247 248 249
195 365 197 202 203 207 209 211 214 217 218 219 220 221 222 224 227 230 231 235 242 243 248 249
196 430
197 266 202 203 207 211 214 218 219 220 221 222 224 227 230 235 242 243 248 249
198 304
199 449 202 207 211 220 221 222 224 227 230 235 242 248 249
200 268
201 283 211 221 222 235
202 449 203 204 207 208 209 211 213 214 217 218 219 220 221 222 224 227 230 231 232 235 239 241 242 243 248 249
203 256 207 209 211 214 217 218 219 220 221 222 224 227 230 231 235 242 243 248 249
204 295 211 220 221 222 224 227 230 235 242 249
205 468
206 256
207 276 208 209 211 213 214 217 218 219 220 221 222 224 227 230 231 232 235 241 242 243 248 249
208 412 211 220 221 222 224 227 230 235 242 249
209 253 211 214 218 219 220 221 222 224 227 230 235 242 243 248 249
210 335
211 498 213 214 217 218 219 220 221 222 224 225 226 227 228 230 231 232 235 239 241 242 243 245 246 247 248 249
212 250
213 252 220 221 222 224 227 230 235 242 248 249
214 470 217 218 219 220 221 222 224 227 230 231 235 242 243 248 249
215 259
216 271
217 376 218 219 220 221 222 224 227 230 231 235 242 243 248 249
218 305 219 220 221 222 224 227 230 231 235 242 243 248 249
219 319 220 221 222 224 227 230 231 235 242 243 248 249
220 396 221 222 224 225 227 228 230 231 232 235 239 241 242 243 245 246 247 248 249
221 282 222 224 225 226 227 228 230 231 232 235 239 241 242 243 245 246 247 248 249
222 322 224 225 226 227 228 230 231 232 235 239 241 242 243 245 246 247 248 249
223 419
224 268 225 227 228 230 231 232 235 239 241 242 243 245 246 247 248 249
225 313 227 230 235 242 249
226 462 235
227 254 228 230 231 232 235 239 241 242 243 245 246 247 248 249
228 284 235
229 370
230 298 231 232 235 239 241 242 243 246 248 249
231 332 235 242 243 248 249
232 352 235 242 248 249
233 283
234 365
235 363 239 241 242 243 245 246 247 248 249
236 254
237 383
238 427
239 284 242 249
240 289
241 470 242 249
242 254 243 246 247 248 249
243 276 248 249
244 460
245 260
246 280 249
247 397
248 253 249
249 350
